99231 106161 859 930
99743 106981 906 931
99956 106251 1031 932
99480 106828 922 933
99883 106129 891 934
99223 106301 875 935
99858 106169 891 936
99778 106683 875 937
99814 106777 875 938
99807 106085 875 939
99892 106907 875 940
98999 106309 890 941
99736 105153 891 942
99987 106011 875 943
99811 107079 875 944
99975 107126 875 945
99964 106202 890 946
100000 107720 875 947
99989 107268 875 948
99922 106571 875 949
99653 106527 875 950
99959 106796 891 951
99946 105965 875 952
99787 106477 859 953
99968 107202 891 954
99970 107117 875 955
99926 106713 891 956
99963 106329 875 957
99959 107032 875 958
99956 106950 890 959
